c WARNING: for repeatability, setting FPU to use double precision
d VARIABLES            74014        
d CONSTRAINTS          295174       
c ============================[ Problem Statistics ]=============================
c |                                                                             |
c |  Number of variables:         74014                                         |
c |  Number of clauses:          295174                                         |
c |  Parse time:                   0.05 s                                       |
c |                                                                             |
c ============================[ Search Statistics ]==============================
c | Conflicts |          ORIGINAL         |          LEARNT          | Progress |
c |           |    Vars  Clauses Literals |    Limit  Clauses Lit/Cl |          |
c ===============================================================================
c |       100 |   53927   243152   594699 |    89155       99     34 | 27.139 % |
c |       250 |   53927   243152   594699 |    98071      249     33 | 27.139 % |
c |       475 |   53927   243127   594639 |   107878      474     65 | 27.139 % |
c |       812 |   53927   243127   594639 |   118666      811     60 | 27.139 % |
c |      1318 |   53927   243127   594639 |   130532     1317     68 | 27.139 % |
c |      2077 |   53927   243127   594639 |   143586     2076     91 | 27.139 % |
c |      3216 |   53927   243127   594639 |   157944     3215    110 | 27.139 % |
c |      4924 |   53927   243127   594639 |   173739     4923    110 | 27.139 % |
c |      7486 |   53927   243127   594639 |   191113     7485    125 | 27.139 % |
c |     11330 |   53926   243117   594616 |   210224    11319    126 | 27.141 % |
c |     17096 |   53926   243117   594616 |   231247    17085    140 | 27.141 % |
c |     25745 |   53916   243053   594466 |   254371    25616    139 | 27.154 % |
c |     38719 |   53911   243003   594351 |   279808    38509    134 | 27.161 % |
c ===============================================================================
c restarts              : 127
c conflicts             : 43167          (2989 /sec)
c decisions             : 221098         (0.00 % random) (15311 /sec)
c propagations          : 81379734       (5635364 /sec)
c conflict literals     : 6361314        (13.63 % deleted)
d RESTARTS             127
d FAILURES             43167        
d NODES                221098       
d BACKTRACKS           221098       
d PROPAGATIONS         81379734     
d NOGOODSIZE           147.37 
d MEMORY               53.00 
d TIME                 14.4409 

s SATISFIABLE
